CMD:
./solvers/bin/cadical --plain --no-reduce -t 1600 ./data/cnfs//arbitrated_top_n4_w16_d64_e0/arbitrated_top_n4_w16_d64_e0.70.cnf

c --- [ banner ] -------------------------------------------------------------
c 
c CaDiCaL SAT Solver
c Copyright (c) 2016-2024
c A. Biere, M. Fleury, N. Froleyks, K. Fazekas, F. Pollitt, T. Faller
c JKU Linz, University of Freiburg, TU Wien
c 
c Version 2.1.3 5296d3d2a9bf48c154ab2acb5e44625776d821bf
c g++ (Gentoo 12.3.1_p20230526 p2) 12.3.1 20230526 -Wall -Wextra -O3 -DNDEBUG
c Sat Aug 9 07:26:21 PDT 2025 Linux cedar2.int.cedar.computecanada.ca 5.14.0-362.24.2.el9_3.x86_64 x86_64
c 
c --- [ limit ] --------------------------------------------------------------
c 
c setting time limit to 1600 seconds real time (due to '-t 1600')
c 
c --- [ parsing input ] ------------------------------------------------------
c 
c reading DIMACS file from './data/cnfs//arbitrated_top_n4_w16_d64_e0/arbitrated_top_n4_w16_d64_e0.70.cnf'
c opening file to read './data/cnfs//arbitrated_top_n4_w16_d64_e0/arbitrated_top_n4_w16_d64_e0.70.cnf'
c found 'p cnf 1690617 5042847' header
c parsed 5042847 clauses in 0.79 seconds process time
c 
c --- [ options ] ------------------------------------------------------------
c 
c   --compact=false                (different from default 'true')
c   --decompose=false              (different from default 'true')
c   --deduplicate=false            (different from default 'true')
c   --elim=false                   (different from default 'true')
c   --probe=false                  (different from default 'true')
c   --reduce=false                 (different from default 'true')
c   --subsume=false                (different from default 'true')
c   --ternary=false                (different from default 'true')
c   --transred=false               (different from default 'true')
c   --vivify=false                 (different from default 'true')
c 
c --- [ solving ] ------------------------------------------------------------
c 
c time measured in process time since initialization
c 
c  seconds   reductions  redundant   irredundant
c          MB    restarts       trail        variables
c           level   conflicts       glue           remaining
c 
c *  0.79 663  0 0   0    0    0  0% 0 3870102 857961 51%
c l  0.85 671  0 0   0    0    0  0% 0 3870102 857961 51%
c 1  0.85 671  0 0   0    0    0  0% 0 3870102 857961 51%
c 
c --- [ result ] -------------------------------------------------------------
c 
s SATISFIABLE
v 1 2 3 4 5 6 7 8 9 10 11 12 13 14 15 16 17 18 19 20 21 22 23 24 25 26 27 28
v 29 30 31 32 33 34 35 36 37 38 39 40 41 42 43 44 45 46 47 48 49 50 51 52 53
v 54 55 56 57 58 59 60 61 62 63 64 65 66 67 68 69 70 71 72 73 74 75 76 77 78
v 79 80 81 82 83 84 85 86 87 88 89 90 91 92 93 94 95 96 97 98 99 100 101 102
v 103 104 105 106 107 108 109 110 111 112 113 114 115 116 117 118 119 120 121
v 122 123 124 125 126 127 128 129 130 131 132 133 134 135 136 137 138 139 140
v 141 142 143 144 145 146 147 148 149 150 151 152 153 154 155 156 157 158 159
v 160 161 162 163 164 165 166 167 168 169 170 171 172 173 174 175 176 177 178
v 179 180 181 182 183 184 185 186 187 188 189 190 191 192 193 194 195 196 197
v 198 199 200 201 202 203 204 205 206 207 208 209 210 211 212 213 214 215 216
v 217 218 219 220 221 222 223 224 225 226 227 228 229 230 231 232 233 234 235
v 236 237 238 239 240 241 242 243 244 245 246 247 248 249 250 251 252 253 254
v 255 256 257 258 259 260 261 262 263 264 265 266 267 268 269 270 271 272 273
v 274 275 276 277 278 279 280 281 282 283 284 285 286 287 288 289 290 291 292
v 293 294 295 296 297 298 299 300 301 302 303 304 305 306 307 308 309 310 311
v 312 313 314 315 316 317 318 319 320 321 322 323 324 325 326 327 328 329 330
v 331 332 333 334 335 336 337 338 339 340 341 342 343 344 345 346 347 348 349
v 350 351 352 353 354 355 356 357 358 359 360 361 362 363 364 365 366 367 368
v 369 370 371 372 373 374 375 376 377 378 379 380 381 382 383 384 385 386 387
v 388 389 390 391 392 393 394 395 396 397 398 399 400 401 402 403 404 405 406
v 407 408 409 410 411 412 413 414 415 416 417 418 419 420 421 422 423 424 425
v 426 427 428 429 430 431 432 433 434 435 436 437 438 439 440 441 442 443 444
v 445 446 447 448 449 450 451 452 453 454 455 456 457 458 459 460 461 462 463
v 464 465 466 467 468 469 470 471 472 473 474 475 476 477 478 479 480 481 482
v 483 484 485 486 487 488 489 490 491 492 493 494 495 496 497 498 499 500 501
v 502 503 504 505 506 507 508 509 510 511 512 513 514 515 516 517 518 519 520
v 521 522 523 524 525 526 527 528 529 530 531 532 533 534 535 536 537 538 539
v 540 541 542 543 544 545 546 547 548 549 550 551 552 553 554 555 556 557 558
v 559 560 561 562 563 564 565 566 567 568 569 570 571 572 573 574 575 576 577
v 578 579 580 581 582 583 584 585 586 587 588 589 590 591 592 593 594 595 596
v 597 598 599 600 601 602 603 604 605 606 607 608 609 610 611 612 613 614 615
v 616 617 618 619 620 621 622 623 624 625 626 627 628 629 630 631 632 633 634
v 635 636 637 638 639 640 641 642 643 644 645 646 647 648 649 650 651 652 653
v 654 655 656 657 658 659 660 661 662 663 664 665 666 667 668 669 670 671 672
v 673 674 675 676 677 678 679 680 681 682 683 684 685 686 687 688 689 690 691
v 692 693 694 695 696 697 698 699 700 701 702 703 704 705 706 707 708 709 710
v 711 712 713 714 715 716 717 718 719 720 721 722 723 724 725 726 727 728 729
v 730 731 732 733 734 735 736 737 738 739 740 741 742 743 744 745 746 747 748
v 749 750 751 752 753 754 755 756 757 758 759 760 761 762 763 764 765 766 767
v 768 769 770 771 772 773 774 775 776 777 778 779 780 781 782 783 784 785 786
v 787 788 789 790 791 792 793 794 795 796 797 798 799 800 801 802 803 804 805
v 806 807 808 809 810 811 812 813 814 815 816 817 818 819 820 821 822 823 824
v 825 826 827 828 829 830 831 832 833 834 835 836 837 838 839 840 841 842 843
v 844 845 846 847 848 849 850 851 852 853 854 855 856 857 858 859 860 861 862
v 863 864 865 866 867 868 869 870 871 872 873 874 875 876 877 878 879 880 881
v 882 883 884 885 886 887 888 889 890 891 892 893 894 895 896 897 898 899 900
v 901 902 903 904 905 906 907 908 909 910 911 912 913 914 915 916 917 918 919
... skipped 189275 lines ...
v -1690111 -1690112 -1690113 -1690114 -1690115 -1690116 -1690117 -1690118
v -1690119 -1690120 -1690121 -1690122 -1690123 -1690124 -1690125 -1690126
v -1690127 -1690128 -1690129 -1690130 -1690131 -1690132 -1690133 -1690134
v -1690135 -1690136 -1690137 -1690138 -1690139 -1690140 -1690141 1690142
v -1690143 1690144 -1690145 -1690146 -1690147 -1690148 -1690149 -1690150
v -1690151 -1690152 -1690153 -1690154 -1690155 -1690156 -1690157 -1690158
v -1690159 -1690160 -1690161 -1690162 -1690163 -1690164 -1690165 -1690166
v -1690167 -1690168 -1690169 -1690170 -1690171 -1690172 -1690173 -1690174
v -1690175 -1690176 -1690177 1690178 -1690179 1690180 -1690181 -1690182
v -1690183 -1690184 -1690185 -1690186 -1690187 -1690188 -1690189 -1690190
v -1690191 -1690192 -1690193 -1690194 -1690195 -1690196 -1690197 -1690198
v -1690199 -1690200 -1690201 -1690202 -1690203 -1690204 -1690205 -1690206
v -1690207 -1690208 -1690209 -1690210 -1690211 -1690212 -1690213 -1690214
v 1690215 -1690216 1690217 -1690218 -1690219 -1690220 -1690221 -1690222
v -1690223 -1690224 -1690225 -1690226 -1690227 -1690228 -1690229 -1690230
v -1690231 -1690232 -1690233 -1690234 -1690235 -1690236 -1690237 -1690238
v -1690239 -1690240 -1690241 -1690242 -1690243 -1690244 -1690245 -1690246
v -1690247 -1690248 -1690249 -1690250 1690251 -1690252 1690253 -1690254
v -1690255 -1690256 -1690257 -1690258 -1690259 -1690260 -1690261 -1690262
v -1690263 -1690264 -1690265 -1690266 -1690267 -1690268 -1690269 -1690270
v -1690271 -1690272 -1690273 -1690274 -1690275 -1690276 -1690277 -1690278
v -1690279 -1690280 -1690281 -1690282 -1690283 -1690284 -1690285 -1690286
v 1690287 -1690288 1690289 -1690290 -1690291 -1690292 -1690293 -1690294
v -1690295 -1690296 -1690297 -1690298 -1690299 -1690300 -1690301 -1690302
v -1690303 -1690304 -1690305 -1690306 -1690307 -1690308 -1690309 -1690310
v -1690311 -1690312 -1690313 -1690314 -1690315 -1690316 -1690317 -1690318
v -1690319 -1690320 -1690321 -1690322 1690323 -1690324 1690325 -1690326
v -1690327 -1690328 -1690329 -1690330 -1690331 -1690332 -1690333 -1690334
v -1690335 -1690336 -1690337 -1690338 -1690339 -1690340 -1690341 -1690342
v -1690343 -1690344 -1690345 -1690346 -1690347 -1690348 -1690349 -1690350
v -1690351 -1690352 -1690353 -1690354 -1690355 -1690356 -1690357 -1690358
v 1690359 -1690360 1690361 -1690362 -1690363 -1690364 -1690365 -1690366
v -1690367 -1690368 -1690369 -1690370 -1690371 -1690372 -1690373 -1690374
v -1690375 -1690376 -1690377 -1690378 -1690379 -1690380 -1690381 -1690382
v -1690383 -1690384 -1690385 -1690386 -1690387 -1690388 -1690389 -1690390
v -1690391 -1690392 -1690393 -1690394 1690395 -1690396 1690397 -1690398
v -1690399 -1690400 -1690401 -1690402 -1690403 -1690404 -1690405 -1690406
v -1690407 -1690408 -1690409 -1690410 -1690411 -1690412 -1690413 -1690414
v -1690415 -1690416 -1690417 -1690418 -1690419 -1690420 -1690421 -1690422
v -1690423 -1690424 -1690425 -1690426 -1690427 -1690428 -1690429 -1690430
v 1690431 -1690432 1690433 -1690434 -1690435 -1690436 -1690437 -1690438
v -1690439 -1690440 -1690441 -1690442 -1690443 -1690444 -1690445 -1690446
v -1690447 -1690448 -1690449 -1690450 -1690451 -1690452 -1690453 -1690454
v -1690455 -1690456 -1690457 -1690458 -1690459 -1690460 -1690461 -1690462
v -1690463 -1690464 -1690465 -1690466 1690467 -1690468 1690469 -1690470
v -1690471 -1690472 -1690473 -1690474 -1690475 -1690476 -1690477 -1690478
v -1690479 -1690480 -1690481 -1690482 -1690483 -1690484 -1690485 -1690486
v -1690487 -1690488 -1690489 -1690490 -1690491 -1690492 -1690493 -1690494
v -1690495 -1690496 -1690497 -1690498 -1690499 -1690500 -1690501 -1690502
v 1690503 -1690504 1690505 -1690506 -1690507 -1690508 -1690509 -1690510
v -1690511 -1690512 -1690513 -1690514 -1690515 -1690516 -1690517 -1690518
v -1690519 -1690520 -1690521 -1690522 -1690523 -1690524 -1690525 -1690526
v -1690527 -1690528 -1690529 -1690530 -1690531 -1690532 -1690533 -1690534
v -1690535 -1690536 -1690537 -1690538 1690539 -1690540 1690541 -1690542
v -1690543 -1690544 -1690545 -1690546 -1690547 -1690548 -1690549 -1690550
v -1690551 -1690552 -1690553 -1690554 -1690555 -1690556 -1690557 -1690558
v -1690559 -1690560 -1690561 -1690562 -1690563 -1690564 -1690565 -1690566
v -1690567 -1690568 -1690569 -1690570 -1690571 -1690572 -1690573 -1690574
v -1690575 1690576 -1690577 1690578 -1690579 -1690580 -1690581 -1690582
v -1690583 -1690584 -1690585 -1690586 -1690587 -1690588 -1690589 -1690590
v -1690591 -1690592 -1690593 -1690594 -1690595 -1690596 -1690597 -1690598
v -1690599 -1690600 -1690601 -1690602 -1690603 -1690604 -1690605 -1690606
v -1690607 -1690608 -1690609 -1690610 -1690611 1690612 -1690613 1690614
v -1690615 1690616 -1690617 0
c 
c --- [ run-time profiling ] -------------------------------------------------
c 
c process time taken by individual solving procedures
c (percentage relative to process time for solving)
c 
c         0.79 1195.48% parse
c         0.07   99.81% search
c         0.07   99.81% lucky
c         0.00    0.00% simplify
c   =================================
c         0.07    6.97% solve
c 
c last line shows process time for solving
c (percentage relative to total process time)
c 
c --- [ statistics ] ---------------------------------------------------------
c 
c fixed:                    832595        49.25 %  of all variables
c lucky:                         1       100.00 %  of tried
c minimized:                     0         0.00 %  learned literals
c shrunken:                      0         0.00 %  learned literals
c minishrunken:                  0         0.00 %  learned literals
c propagations:             832595        12.68 M  per second
c 
c seconds are measured in process time for solving
c 
c --- [ resources ] ----------------------------------------------------------
c 
c total process time since initialization:         0.94    seconds
c total real time since initialization:            0.96    seconds
c maximum resident set size of process:          670.21    MB
c 
c --- [ shutting down ] ------------------------------------------------------
c 
c exit 10
